p cnf 122 303
c ind 1 2 3 4 5 6 7 8 0
-1 1 9 0
-1 3 10 0
-1 5 11 0
-1 7 12 0
-3 1 13 0
-3 3 14 0
-3 5 15 0
-3 7 16 0
-5 1 17 0
-5 3 18 0
-5 5 19 0
-5 7 20 0
-7 1 21 0
-7 3 22 0
-7 5 23 0
-7 7 24 0
-2 2 9 0
-2 4 10 0
-2 6 11 0
-2 8 12 0
-4 2 13 0
-4 4 14 0
-4 6 15 0
-4 8 16 0
-6 2 17 0
-6 4 18 0
-6 6 19 0
-6 8 20 0
-8 2 21 0
-8 4 22 0
-8 6 23 0
-8 8 24 0
-1 -1 25 0
-3 -1 26 0
-1 -3 27 0
-3 -3 28 0
-5 -1 29 0
-7 -1 30 0
-5 -3 31 0
-7 -3 32 0
-2 -5 25 0
-4 -5 26 0
-2 -7 27 0
-4 -7 28 0
-6 -5 29 0
-8 -5 30 0
-6 -7 31 0
-8 -7 32 0
-1 -2 33 0
-3 -2 34 0
-1 -4 35 0
-3 -4 36 0
-5 -2 37 0
-7 -2 38 0
-5 -4 39 0
-7 -4 40 0
-2 -6 33 0
-4 -6 34 0
-2 -8 35 0
-4 -8 36 0
-6 -6 37 0
-8 -6 38 0
-6 -8 39 0
-8 -8 40 0
-1 -1 41 0
-3 -1 42 0
-5 -1 43 0
-7 -1 44 0
-2 -5 41 0
-4 -5 42 0
-6 -5 43 0
-8 -5 44 0
-1 -2 45 0
-3 -2 46 0
-5 -2 47 0
-7 -2 48 0
-2 -6 45 0
-4 -6 46 0
-6 -6 47 0
-8 -6 48 0
-1 -3 49 0
-3 -3 50 0
-5 -3 51 0
-7 -3 52 0
-2 -7 49 0
-4 -7 50 0
-6 -7 51 0
-8 -7 52 0
-1 -4 53 0
-3 -4 54 0
-5 -4 55 0
-7 -4 56 0
-2 -8 53 0
-4 -8 54 0
-6 -8 55 0
-8 -8 56 0
-1 -25 57 0
-5 -25 58 0
-1 -26 59 0
-5 -26 60 0
-1 -27 61 0
-5 -27 62 0
-1 -28 63 0
-5 -28 64 0
-3 -25 65 0
-7 -25 66 0
-3 -26 67 0
-7 -26 68 0
-3 -27 69 0
-7 -27 70 0
-3 -28 71 0
-7 -28 72 0
-2 -29 57 0
-6 -29 58 0
-2 -30 59 0
-6 -30 60 0
-2 -31 61 0
-6 -31 62 0
-2 -32 63 0
-6 -32 64 0
-4 -29 65 0
-8 -29 66 0
-4 -30 67 0
-8 -30 68 0
-4 -31 69 0
-8 -31 70 0
-4 -32 71 0
-8 -32 72 0
-1 -33 73 0
-5 -33 74 0
-1 -34 75 0
-5 -34 76 0
-1 -35 77 0
-5 -35 78 0
-1 -36 79 0
-5 -36 80 0
-3 -33 81 0
-7 -33 82 0
-3 -34 83 0
-7 -34 84 0
-3 -35 85 0
-7 -35 86 0
-3 -36 87 0
-7 -36 88 0
-2 -37 73 0
-6 -37 74 0
-2 -38 75 0
-6 -38 76 0
-2 -39 77 0
-6 -39 78 0
-2 -40 79 0
-6 -40 80 0
-4 -37 81 0
-8 -37 82 0
-4 -38 83 0
-8 -38 84 0
-4 -39 85 0
-8 -39 86 0
-4 -40 87 0
-8 -40 88 0
-9 -57 89 0
-10 -58 90 0
-9 -59 91 0
-10 -60 92 0
-11 -57 93 0
-12 -58 94 0
-11 -59 95 0
-12 -60 96 0
-9 -61 97 0
-10 -62 98 0
-9 -63 99 0
-10 -64 100 0
-11 -61 101 0
-12 -62 102 0
-11 -63 103 0
-12 -64 104 0
-13 -65 105 0
-14 -66 106 0
-13 -67 107 0
-14 -68 108 0
-15 -65 109 0
-16 -66 110 0
-15 -67 111 0
-16 -68 112 0
-13 -69 113 0
-14 -70 114 0
-13 -71 115 0
-14 -72 116 0
-15 -69 117 0
-16 -70 118 0
-15 -71 119 0
-16 -72 120 0
-17 -73 89 0
-18 -74 90 0
-17 -75 91 0
-18 -76 92 0
-19 -73 93 0
-20 -74 94 0
-19 -75 95 0
-20 -76 96 0
-17 -77 97 0
-18 -78 98 0
-17 -79 99 0
-18 -80 100 0
-19 -77 101 0
-20 -78 102 0
-19 -79 103 0
-20 -80 104 0
-21 -81 105 0
-22 -82 106 0
-21 -83 107 0
-22 -84 108 0
-23 -81 109 0
-24 -82 110 0
-23 -83 111 0
-24 -84 112 0
-21 -85 113 0
-22 -86 114 0
-21 -87 115 0
-22 -88 116 0
-23 -85 117 0
-24 -86 118 0
-23 -87 119 0
-24 -88 120 0
-121 -1 -41 -89 0
-121 -1 -42 -90 0
-121 -3 -43 -89 0
-121 -3 -44 -90 0
-121 -5 -41 -91 0
-121 -5 -42 -92 0
-121 -7 -43 -91 0
-121 -7 -44 -92 0
-121 -2 -41 -93 0
-121 -2 -42 -94 0
-121 -4 -43 -93 0
-121 -4 -44 -94 0
-121 -6 -41 -95 0
-121 -6 -42 -96 0
-121 -8 -43 -95 0
-121 -8 -44 -96 0
-121 -1 -45 -97 0
-121 -1 -46 -98 0
-121 -3 -47 -97 0
-121 -3 -48 -98 0
-121 -5 -45 -99 0
-121 -5 -46 -100 0
-121 -7 -47 -99 0
-121 -7 -48 -100 0
-121 -2 -45 -101 0
-121 -2 -46 -102 0
-121 -4 -47 -101 0
-121 -4 -48 -102 0
-121 -6 -45 -103 0
-121 -6 -46 -104 0
-121 -8 -47 -103 0
-121 -8 -48 -104 0
-122 -1 -49 -105 0
-122 -1 -50 -106 0
-122 -3 -51 -105 0
-122 -3 -52 -106 0
-122 -5 -49 -107 0
-122 -5 -50 -108 0
-122 -7 -51 -107 0
-122 -7 -52 -108 0
-122 -2 -49 -109 0
-122 -2 -50 -110 0
-122 -4 -51 -109 0
-122 -4 -52 -110 0
-122 -6 -49 -111 0
-122 -6 -50 -112 0
-122 -8 -51 -111 0
-122 -8 -52 -112 0
-122 -1 -53 -113 0
-122 -1 -54 -114 0
-122 -3 -55 -113 0
-122 -3 -56 -114 0
-122 -5 -53 -115 0
-122 -5 -54 -116 0
-122 -7 -55 -115 0
-122 -7 -56 -116 0
-122 -2 -53 -117 0
-122 -2 -54 -118 0
-122 -4 -55 -117 0
-122 -4 -56 -118 0
-122 -6 -53 -119 0
-122 -6 -54 -120 0
-122 -8 -55 -119 0
-122 -8 -56 -120 0
-121 -1 1 0
-121 -2 5 0
-122 -7 4 0
-122 -8 8 0
1 2 0
-1 -2 0
3 4 0
-3 -4 0
5 6 0
-5 -6 0
7 8 0
-7 -8 0
121 122 0
-121 -122 0
121 0
